M = 10;
N = 7;
R = 3;
U=11;
con =   [|false,true,true,true,false,false,false,
         |true,false,false,false,false,false,true,
         |true,false,false,true,false,true,false,
         |true,false,true,false,false,false,false,
         |false,false,false,false,false,true,true,
         |false,false,true,false,true,false,true,
         |false,true,false,false,true,true,false|]


